c File: instances/10_0.35_1.col
c
c Description: Random graph of size 10 vertices and P(0.35) of edges between any two vertices.
p col 10 45
e 1 3
e 2 7
e 3 4
e 3 8
e 3 9
e 4 5
e 4 6
e 5 6
e 6 8
e 8 9
e 9 10